20
587 233 220
95 80 57
112 87 23
116 41 40
98 80 56
108 60 59
82 77 67
67 46 36
104 72 44
89 56 24
64 36 36
101 86 31
69 65 37
106 39 22
100 58 37
56 53 35
66 53 51
116 36 20
48 35 33
63 62 41
59 53 48
thpack7_12